; benchmark generated from python API
(set-info :status unknown)
(declare-fun x_months () Int)
(declare-fun x_beta () Int)
(assert
 (<= (- 1202) x_months))
(assert
 (>= 1209 x_months))
(assert
 (let ((?x1794 (mod x_months 48)))
 (let ((?x13 ((as const (Array Int Int)) 0)))
 (let ((?x15 (store ?x13 0 31)))
 (let ((?x18 (store ?x15 1 30)))
 (let ((?x20 (store ?x18 2 31)))
 (let ((?x22 (store ?x20 3 30)))
 (let ((?x24 (store ?x22 4 31)))
 (let ((?x26 (store ?x24 5 31)))
 (let ((?x28 (store ?x26 6 30)))
 (let ((?x30 (store ?x28 7 31)))
 (let ((?x32 (store ?x30 8 30)))
 (let ((?x34 (store ?x32 9 31)))
 (let ((?x36 (store ?x34 10 31)))
 (let ((?x39 (store ?x36 11 28)))
 (let ((?x41 (store ?x39 12 31)))
 (let ((?x43 (store ?x41 13 30)))
 (let ((?x45 (store ?x43 14 31)))
 (let ((?x47 (store ?x45 15 30)))
 (let ((?x49 (store ?x47 16 31)))
 (let ((?x51 (store ?x49 17 31)))
 (let ((?x53 (store ?x51 18 30)))
 (let ((?x55 (store ?x53 19 31)))
 (let ((?x57 (store ?x55 20 30)))
 (let ((?x59 (store ?x57 21 31)))
 (let ((?x61 (store ?x59 22 31)))
 (let ((?x63 (store ?x61 23 28)))
 (let ((?x65 (store ?x63 24 31)))
 (let ((?x67 (store ?x65 25 30)))
 (let ((?x69 (store ?x67 26 31)))
 (let ((?x71 (store ?x69 27 30)))
 (let ((?x72 (store ?x71 28 31)))
 (let ((?x74 (store ?x72 29 31)))
 (let ((?x75 (store ?x74 30 30)))
 (let ((?x76 (store ?x75 31 31)))
 (let ((?x78 (store ?x76 32 30)))
 (let ((?x80 (store ?x78 33 31)))
 (let ((?x82 (store ?x80 34 31)))
 (let ((?x84 (store ?x82 35 28)))
 (let ((?x86 (store ?x84 36 31)))
 (let ((?x88 (store ?x86 37 30)))
 (let ((?x90 (store ?x88 38 31)))
 (let ((?x92 (store ?x90 39 30)))
 (let ((?x94 (store ?x92 40 31)))
 (let ((?x96 (store ?x94 41 31)))
 (let ((?x98 (store ?x96 42 30)))
 (let ((?x100 (store ?x98 43 31)))
 (let ((?x102 (store ?x100 44 30)))
 (let ((?x104 (store ?x102 45 31)))
 (let ((?x106 (store ?x104 46 31)))
 (let ((?x108 (store ?x106 47 29)))
 (let ((?x4599 (select ?x108 ?x1794)))
 (let ((?x5082 (ite (or (= 22802 (+ x_months 24003)) (= 25202 (+ x_months 24003))) 28 ?x4599)))
 (let (($x924 (<= 0 x_beta)))
 (and $x924 (< x_beta ?x5082))))))))))))))))))))))))))))))))))))))))))))))))))))))))
(assert
 (let (($x924 (<= 0 x_beta)))
 (or (> x_months (- (+ (* 2020 12) 1) 24003)) (and (= x_months (- (+ (* 2020 12) 1) 24003)) $x924))))
(assert
 (let (($x1909 (and (= x_months (- (+ (* 2020 12) 2) 24003)) (>= 27 x_beta))))
 (or (< x_months (- (+ (* 2020 12) 2) 24003)) $x1909)))
(assert
 (let ((?x252 (+ x_months 0)))
(let ((?x4366 (mod ?x252 48)))
(let ((?x5439 (ite (> 22803 (+ ?x252 24003)) 1 (ite (<= 25203 (+ ?x252 24003)) (- 1) 0))))
(let ((?x13 ((as const (Array Int Int)) 0)))
(let ((?x15 (store ?x13 0 31)))
(let ((?x18 (store ?x15 1 30)))
(let ((?x20 (store ?x18 2 31)))
(let ((?x22 (store ?x20 3 30)))
(let ((?x24 (store ?x22 4 31)))
(let ((?x26 (store ?x24 5 31)))
(let ((?x28 (store ?x26 6 30)))
(let ((?x30 (store ?x28 7 31)))
(let ((?x32 (store ?x30 8 30)))
(let ((?x34 (store ?x32 9 31)))
(let ((?x36 (store ?x34 10 31)))
(let ((?x39 (store ?x36 11 28)))
(let ((?x41 (store ?x39 12 31)))
(let ((?x43 (store ?x41 13 30)))
(let ((?x45 (store ?x43 14 31)))
(let ((?x47 (store ?x45 15 30)))
(let ((?x49 (store ?x47 16 31)))
(let ((?x51 (store ?x49 17 31)))
(let ((?x53 (store ?x51 18 30)))
(let ((?x55 (store ?x53 19 31)))
(let ((?x57 (store ?x55 20 30)))
(let ((?x59 (store ?x57 21 31)))
(let ((?x61 (store ?x59 22 31)))
(let ((?x63 (store ?x61 23 28)))
(let ((?x65 (store ?x63 24 31)))
(let ((?x67 (store ?x65 25 30)))
(let ((?x69 (store ?x67 26 31)))
(let ((?x71 (store ?x69 27 30)))
(let ((?x72 (store ?x71 28 31)))
(let ((?x74 (store ?x72 29 31)))
(let ((?x75 (store ?x74 30 30)))
(let ((?x76 (store ?x75 31 31)))
(let ((?x78 (store ?x76 32 30)))
(let ((?x80 (store ?x78 33 31)))
(let ((?x82 (store ?x80 34 31)))
(let ((?x84 (store ?x82 35 28)))
(let ((?x86 (store ?x84 36 31)))
(let ((?x88 (store ?x86 37 30)))
(let ((?x90 (store ?x88 38 31)))
(let ((?x92 (store ?x90 39 30)))
(let ((?x94 (store ?x92 40 31)))
(let ((?x96 (store ?x94 41 31)))
(let ((?x98 (store ?x96 42 30)))
(let ((?x100 (store ?x98 43 31)))
(let ((?x102 (store ?x100 44 30)))
(let ((?x104 (store ?x102 45 31)))
(let ((?x106 (store ?x104 46 31)))
(let ((?x108 (store ?x106 47 29)))
(let ((?x5110 (ite (or (= 22802 (+ ?x252 24003)) (= 25202 (+ ?x252 24003))) 28 (select ?x108 ?x4366))))
(let ((?x3304 (- ?x5110 1)))
(let (($x2291 (> 0 x_beta)))
(let ((?x114 (store (store (store (store ?x13 0 0) 1 31) 2 61) 3 92)))
(let ((?x122 (store (store (store (store ?x114 4 122) 5 153) 6 184) 7 214)))
(let ((?x130 (store (store (store (store ?x122 8 245) 9 275) 10 306) 11 337)))
(let ((?x138 (store (store (store (store ?x130 12 365) 13 396) 14 426) 15 457)))
(let ((?x146 (store (store (store (store ?x138 16 487) 17 518) 18 549) 19 579)))
(let ((?x154 (store (store (store (store ?x146 20 610) 21 640) 22 671) 23 702)))
(let ((?x162 (store (store (store (store ?x154 24 730) 25 761) 26 791) 27 822)))
(let ((?x170 (store (store (store (store ?x162 28 852) 29 883) 30 914) 31 944)))
(let ((?x178 (store (store (store (store ?x170 32 975) 33 1005) 34 1036) 35 1067)))
(let ((?x186 (store (store (store (store ?x178 36 1095) 37 1126) 38 1156) 39 1187)))
(let ((?x194 (store (store (store (store ?x186 40 1217) 41 1248) 42 1279) 43 1309)))
(let ((?x202 (store (store (store (store ?x194 44 1340) 45 1370) 46 1401) 47 1432)))
(let ((?x2549 (+ (select ?x202 ?x4366) (ite $x2291 0 (ite (> x_beta ?x3304) ?x3304 x_beta)))))
(let ((?x3133 (+ (+ ?x2549 ?x5439) 365)))
(let ((?x5107 (+ ?x252 (* (div ?x3133 1461) 48))))
(let ((?x558 (+ (+ ?x5107 (- 1 ?x4366)) 24003)))
(let ((?x5017 (select ?x202 1)))
(let ((?x2135 (mod ?x3133 1461)))
(let (($x5595 (>= ?x2135 (+ ?x5017 (ite (> 22803 ?x558) 1 (ite (<= 25203 ?x558) (- 1) 0))))))
(let ((?x4446 (ite (> 22803 (+ (+ ?x5107 (- 2 ?x4366)) 24003)) 1 (ite (<= 25203 (+ (+ ?x5107 (- 2 ?x4366)) 24003)) (- 1) 0))))
(let ((?x4825 (select ?x202 2)))
(let ((?x5572 (ite (> 22803 (+ (+ ?x5107 (- 3 ?x4366)) 24003)) 1 (ite (<= 25203 (+ (+ ?x5107 (- 3 ?x4366)) 24003)) (- 1) 0))))
(let ((?x825 (select ?x202 3)))
(let ((?x4943 (ite (>= ?x2135 (+ ?x825 ?x5572)) 3 (ite (>= ?x2135 (+ ?x4825 ?x4446)) 2 (ite $x5595 1 0)))))
(let ((?x1828 (ite (> 22803 (+ (+ ?x5107 (- 4 ?x4366)) 24003)) 1 (ite (<= 25203 (+ (+ ?x5107 (- 4 ?x4366)) 24003)) (- 1) 0))))
(let ((?x4400 (select ?x202 4)))
(let ((?x4734 (ite (> 22803 (+ (+ ?x5107 (- 5 ?x4366)) 24003)) 1 (ite (<= 25203 (+ (+ ?x5107 (- 5 ?x4366)) 24003)) (- 1) 0))))
(let ((?x4116 (select ?x202 5)))
(let ((?x4619 (ite (>= ?x2135 (+ ?x4116 ?x4734)) 5 (ite (>= ?x2135 (+ ?x4400 ?x1828)) 4 ?x4943))))
(let ((?x4877 (ite (> 22803 (+ (+ ?x5107 (- 6 ?x4366)) 24003)) 1 (ite (<= 25203 (+ (+ ?x5107 (- 6 ?x4366)) 24003)) (- 1) 0))))
(let ((?x3509 (select ?x202 6)))
(let ((?x4047 (ite (> 22803 (+ (+ ?x5107 (- 7 ?x4366)) 24003)) 1 (ite (<= 25203 (+ (+ ?x5107 (- 7 ?x4366)) 24003)) (- 1) 0))))
(let ((?x5141 (select ?x202 7)))
(let ((?x1637 (ite (>= ?x2135 (+ ?x5141 ?x4047)) 7 (ite (>= ?x2135 (+ ?x3509 ?x4877)) 6 ?x4619))))
(let ((?x3138 (ite (> 22803 (+ (+ ?x5107 (- 8 ?x4366)) 24003)) 1 (ite (<= 25203 (+ (+ ?x5107 (- 8 ?x4366)) 24003)) (- 1) 0))))
(let ((?x3177 (select ?x202 8)))
(let ((?x3255 (ite (> 22803 (+ (+ ?x5107 (- 9 ?x4366)) 24003)) 1 (ite (<= 25203 (+ (+ ?x5107 (- 9 ?x4366)) 24003)) (- 1) 0))))
(let ((?x4094 (select ?x202 9)))
(let ((?x4051 (ite (>= ?x2135 (+ ?x4094 ?x3255)) 9 (ite (>= ?x2135 (+ ?x3177 ?x3138)) 8 ?x1637))))
(let ((?x2567 (ite (> 22803 (+ (+ ?x5107 (- 10 ?x4366)) 24003)) 1 (ite (<= 25203 (+ (+ ?x5107 (- 10 ?x4366)) 24003)) (- 1) 0))))
(let ((?x2946 (select ?x202 10)))
(let ((?x3591 (ite (> 22803 (+ (+ ?x5107 (- 11 ?x4366)) 24003)) 1 (ite (<= 25203 (+ (+ ?x5107 (- 11 ?x4366)) 24003)) (- 1) 0))))
(let ((?x1488 (select ?x202 11)))
(let ((?x4705 (ite (>= ?x2135 (+ ?x1488 ?x3591)) 11 (ite (>= ?x2135 (+ ?x2946 ?x2567)) 10 ?x4051))))
(let ((?x5571 (ite (> 22803 (+ (+ ?x5107 (- 12 ?x4366)) 24003)) 1 (ite (<= 25203 (+ (+ ?x5107 (- 12 ?x4366)) 24003)) (- 1) 0))))
(let ((?x2643 (select ?x202 12)))
(let ((?x4590 (ite (> 22803 (+ (+ ?x5107 (- 13 ?x4366)) 24003)) 1 (ite (<= 25203 (+ (+ ?x5107 (- 13 ?x4366)) 24003)) (- 1) 0))))
(let ((?x1881 (select ?x202 13)))
(let ((?x4478 (ite (>= ?x2135 (+ ?x1881 ?x4590)) 13 (ite (>= ?x2135 (+ ?x2643 ?x5571)) 12 ?x4705))))
(let ((?x4371 (ite (> 22803 (+ (+ ?x5107 (- 14 ?x4366)) 24003)) 1 (ite (<= 25203 (+ (+ ?x5107 (- 14 ?x4366)) 24003)) (- 1) 0))))
(let ((?x3895 (select ?x202 14)))
(let ((?x3435 (ite (> 22803 (+ (+ ?x5107 (- 15 ?x4366)) 24003)) 1 (ite (<= 25203 (+ (+ ?x5107 (- 15 ?x4366)) 24003)) (- 1) 0))))
(let ((?x863 (select ?x202 15)))
(let ((?x4522 (ite (>= ?x2135 (+ ?x863 ?x3435)) 15 (ite (>= ?x2135 (+ ?x3895 ?x4371)) 14 ?x4478))))
(let ((?x1035 (ite (> 22803 (+ (+ ?x5107 (- 16 ?x4366)) 24003)) 1 (ite (<= 25203 (+ (+ ?x5107 (- 16 ?x4366)) 24003)) (- 1) 0))))
(let ((?x2150 (select ?x202 16)))
(let ((?x4930 (ite (> 22803 (+ (+ ?x5107 (- 17 ?x4366)) 24003)) 1 (ite (<= 25203 (+ (+ ?x5107 (- 17 ?x4366)) 24003)) (- 1) 0))))
(let ((?x1410 (select ?x202 17)))
(let ((?x2205 (ite (>= ?x2135 (+ ?x1410 ?x4930)) 17 (ite (>= ?x2135 (+ ?x2150 ?x1035)) 16 ?x4522))))
(let ((?x4782 (ite (> 22803 (+ (+ ?x5107 (- 18 ?x4366)) 24003)) 1 (ite (<= 25203 (+ (+ ?x5107 (- 18 ?x4366)) 24003)) (- 1) 0))))
(let ((?x5091 (select ?x202 18)))
(let ((?x5287 (ite (> 22803 (+ (+ ?x5107 (- 19 ?x4366)) 24003)) 1 (ite (<= 25203 (+ (+ ?x5107 (- 19 ?x4366)) 24003)) (- 1) 0))))
(let ((?x2081 (select ?x202 19)))
(let ((?x4602 (ite (>= ?x2135 (+ ?x2081 ?x5287)) 19 (ite (>= ?x2135 (+ ?x5091 ?x4782)) 18 ?x2205))))
(let ((?x5469 (ite (> 22803 (+ (+ ?x5107 (- 20 ?x4366)) 24003)) 1 (ite (<= 25203 (+ (+ ?x5107 (- 20 ?x4366)) 24003)) (- 1) 0))))
(let ((?x5640 (select ?x202 20)))
(let ((?x4792 (ite (> 22803 (+ (+ ?x5107 (- 21 ?x4366)) 24003)) 1 (ite (<= 25203 (+ (+ ?x5107 (- 21 ?x4366)) 24003)) (- 1) 0))))
(let ((?x1923 (select ?x202 21)))
(let ((?x3987 (ite (>= ?x2135 (+ ?x1923 ?x4792)) 21 (ite (>= ?x2135 (+ ?x5640 ?x5469)) 20 ?x4602))))
(let ((?x2050 (ite (> 22803 (+ (+ ?x5107 (- 22 ?x4366)) 24003)) 1 (ite (<= 25203 (+ (+ ?x5107 (- 22 ?x4366)) 24003)) (- 1) 0))))
(let ((?x3985 (select ?x202 22)))
(let ((?x5223 (ite (> 22803 (+ (+ ?x5107 (- 23 ?x4366)) 24003)) 1 (ite (<= 25203 (+ (+ ?x5107 (- 23 ?x4366)) 24003)) (- 1) 0))))
(let ((?x1641 (select ?x202 23)))
(let ((?x4699 (ite (>= ?x2135 (+ ?x1641 ?x5223)) 23 (ite (>= ?x2135 (+ ?x3985 ?x2050)) 22 ?x3987))))
(let ((?x5151 (ite (> 22803 (+ (+ ?x5107 (- 24 ?x4366)) 24003)) 1 (ite (<= 25203 (+ (+ ?x5107 (- 24 ?x4366)) 24003)) (- 1) 0))))
(let ((?x5618 (select ?x202 24)))
(let ((?x5517 (ite (> 22803 (+ (+ ?x5107 (- 25 ?x4366)) 24003)) 1 (ite (<= 25203 (+ (+ ?x5107 (- 25 ?x4366)) 24003)) (- 1) 0))))
(let ((?x4510 (select ?x202 25)))
(let ((?x4764 (ite (>= ?x2135 (+ ?x4510 ?x5517)) 25 (ite (>= ?x2135 (+ ?x5618 ?x5151)) 24 ?x4699))))
(let ((?x3342 (ite (> 22803 (+ (+ ?x5107 (- 26 ?x4366)) 24003)) 1 (ite (<= 25203 (+ (+ ?x5107 (- 26 ?x4366)) 24003)) (- 1) 0))))
(let ((?x4042 (select ?x202 26)))
(let ((?x1311 (ite (> 22803 (+ (+ ?x5107 (- 27 ?x4366)) 24003)) 1 (ite (<= 25203 (+ (+ ?x5107 (- 27 ?x4366)) 24003)) (- 1) 0))))
(let ((?x1851 (select ?x202 27)))
(let ((?x4346 (ite (>= ?x2135 (+ ?x1851 ?x1311)) 27 (ite (>= ?x2135 (+ ?x4042 ?x3342)) 26 ?x4764))))
(let ((?x3186 (ite (> 22803 (+ (+ ?x5107 (- 28 ?x4366)) 24003)) 1 (ite (<= 25203 (+ (+ ?x5107 (- 28 ?x4366)) 24003)) (- 1) 0))))
(let ((?x3930 (select ?x202 28)))
(let ((?x4214 (ite (> 22803 (+ (+ ?x5107 (- 29 ?x4366)) 24003)) 1 (ite (<= 25203 (+ (+ ?x5107 (- 29 ?x4366)) 24003)) (- 1) 0))))
(let ((?x3401 (select ?x202 29)))
(let ((?x4733 (ite (>= ?x2135 (+ ?x3401 ?x4214)) 29 (ite (>= ?x2135 (+ ?x3930 ?x3186)) 28 ?x4346))))
(let ((?x5384 (ite (> 22803 (+ (+ ?x5107 (- 30 ?x4366)) 24003)) 1 (ite (<= 25203 (+ (+ ?x5107 (- 30 ?x4366)) 24003)) (- 1) 0))))
(let ((?x4920 (select ?x202 30)))
(let ((?x1218 (ite (> 22803 (+ (+ ?x5107 (- 31 ?x4366)) 24003)) 1 (ite (<= 25203 (+ (+ ?x5107 (- 31 ?x4366)) 24003)) (- 1) 0))))
(let ((?x2513 (select ?x202 31)))
(let ((?x4824 (ite (>= ?x2135 (+ ?x2513 ?x1218)) 31 (ite (>= ?x2135 (+ ?x4920 ?x5384)) 30 ?x4733))))
(let ((?x4474 (ite (> 22803 (+ (+ ?x5107 (- 32 ?x4366)) 24003)) 1 (ite (<= 25203 (+ (+ ?x5107 (- 32 ?x4366)) 24003)) (- 1) 0))))
(let ((?x4848 (select ?x202 32)))
(let ((?x2167 (ite (> 22803 (+ (+ ?x5107 (- 33 ?x4366)) 24003)) 1 (ite (<= 25203 (+ (+ ?x5107 (- 33 ?x4366)) 24003)) (- 1) 0))))
(let ((?x5530 (select ?x202 33)))
(let ((?x5188 (ite (>= ?x2135 (+ ?x5530 ?x2167)) 33 (ite (>= ?x2135 (+ ?x4848 ?x4474)) 32 ?x4824))))
(let ((?x5368 (ite (> 22803 (+ (+ ?x5107 (- 34 ?x4366)) 24003)) 1 (ite (<= 25203 (+ (+ ?x5107 (- 34 ?x4366)) 24003)) (- 1) 0))))
(let ((?x1066 (select ?x202 34)))
(let ((?x2143 (ite (> 22803 (+ (+ ?x5107 (- 35 ?x4366)) 24003)) 1 (ite (<= 25203 (+ (+ ?x5107 (- 35 ?x4366)) 24003)) (- 1) 0))))
(let ((?x4415 (select ?x202 35)))
(let ((?x5035 (ite (>= ?x2135 (+ ?x4415 ?x2143)) 35 (ite (>= ?x2135 (+ ?x1066 ?x5368)) 34 ?x5188))))
(let ((?x3707 (ite (> 22803 (+ (+ ?x5107 (- 36 ?x4366)) 24003)) 1 (ite (<= 25203 (+ (+ ?x5107 (- 36 ?x4366)) 24003)) (- 1) 0))))
(let ((?x4713 (select ?x202 36)))
(let ((?x4791 (ite (> 22803 (+ (+ ?x5107 (- 37 ?x4366)) 24003)) 1 (ite (<= 25203 (+ (+ ?x5107 (- 37 ?x4366)) 24003)) (- 1) 0))))
(let ((?x3617 (select ?x202 37)))
(let ((?x828 (ite (>= ?x2135 (+ ?x3617 ?x4791)) 37 (ite (>= ?x2135 (+ ?x4713 ?x3707)) 36 ?x5035))))
(let ((?x3563 (ite (> 22803 (+ (+ ?x5107 (- 38 ?x4366)) 24003)) 1 (ite (<= 25203 (+ (+ ?x5107 (- 38 ?x4366)) 24003)) (- 1) 0))))
(let ((?x2046 (select ?x202 38)))
(let ((?x533 (ite (> 22803 (+ (+ ?x5107 (- 39 ?x4366)) 24003)) 1 (ite (<= 25203 (+ (+ ?x5107 (- 39 ?x4366)) 24003)) (- 1) 0))))
(let ((?x5727 (select ?x202 39)))
(let ((?x2754 (ite (>= ?x2135 (+ ?x5727 ?x533)) 39 (ite (>= ?x2135 (+ ?x2046 ?x3563)) 38 ?x828))))
(let ((?x4944 (ite (> 22803 (+ (+ ?x5107 (- 40 ?x4366)) 24003)) 1 (ite (<= 25203 (+ (+ ?x5107 (- 40 ?x4366)) 24003)) (- 1) 0))))
(let ((?x5422 (select ?x202 40)))
(let ((?x4935 (ite (> 22803 (+ (+ ?x5107 (- 41 ?x4366)) 24003)) 1 (ite (<= 25203 (+ (+ ?x5107 (- 41 ?x4366)) 24003)) (- 1) 0))))
(let ((?x3175 (select ?x202 41)))
(let ((?x1515 (ite (>= ?x2135 (+ ?x3175 ?x4935)) 41 (ite (>= ?x2135 (+ ?x5422 ?x4944)) 40 ?x2754))))
(let ((?x5228 (ite (> 22803 (+ (+ ?x5107 (- 42 ?x4366)) 24003)) 1 (ite (<= 25203 (+ (+ ?x5107 (- 42 ?x4366)) 24003)) (- 1) 0))))
(let ((?x5124 (select ?x202 42)))
(let ((?x727 (ite (> 22803 (+ (+ ?x5107 (- 43 ?x4366)) 24003)) 1 (ite (<= 25203 (+ (+ ?x5107 (- 43 ?x4366)) 24003)) (- 1) 0))))
(let ((?x1456 (select ?x202 43)))
(let ((?x5493 (ite (>= ?x2135 (+ ?x1456 ?x727)) 43 (ite (>= ?x2135 (+ ?x5124 ?x5228)) 42 ?x1515))))
(let ((?x5013 (ite (> 22803 (+ (+ ?x5107 (- 44 ?x4366)) 24003)) 1 (ite (<= 25203 (+ (+ ?x5107 (- 44 ?x4366)) 24003)) (- 1) 0))))
(let ((?x2814 (select ?x202 44)))
(let ((?x2498 (ite (> 22803 (+ (+ ?x5107 (- 45 ?x4366)) 24003)) 1 (ite (<= 25203 (+ (+ ?x5107 (- 45 ?x4366)) 24003)) (- 1) 0))))
(let ((?x3507 (select ?x202 45)))
(let ((?x3423 (ite (>= ?x2135 (+ ?x3507 ?x2498)) 45 (ite (>= ?x2135 (+ ?x2814 ?x5013)) 44 ?x5493))))
(let ((?x5623 (ite (> 22803 (+ (+ ?x5107 (- 46 ?x4366)) 24003)) 1 (ite (<= 25203 (+ (+ ?x5107 (- 46 ?x4366)) 24003)) (- 1) 0))))
(let ((?x4417 (select ?x202 46)))
(let ((?x4450 (ite (> 22803 (+ (+ ?x5107 (- 47 ?x4366)) 24003)) 1 (ite (<= 25203 (+ (+ ?x5107 (- 47 ?x4366)) 24003)) (- 1) 0))))
(let ((?x5369 (select ?x202 47)))
(let ((?x5118 (ite (>= ?x2135 (+ ?x5369 ?x4450)) 47 (ite (>= ?x2135 (+ ?x4417 ?x5623)) 46 ?x3423))))
(let ((?x3000 (+ ?x5107 (- ?x5118 ?x4366))))
(let ((?x3972 (+ ?x3000 24003)))
(let ((?x2450 (+ (select ?x202 ?x5118) (ite (> 22803 ?x3972) 1 (ite (<= 25203 ?x3972) (- 1) 0)))))
(let ((?x3837 (- ?x2135 ?x2450)))
(let ((?x1976 (ite (or (= 22802 ?x3972) (= 25202 ?x3972)) 28 (select ?x108 ?x5118))))
(let ((?x2913 (+ x_months 12)))
(let ((?x4360 (mod ?x2913 48)))
(let ((?x1689 (ite (> 22803 (+ ?x2913 24003)) 1 (ite (<= 25203 (+ ?x2913 24003)) (- 1) 0))))
(let ((?x5029 (ite (or (= 22802 (+ ?x2913 24003)) (= 25202 (+ ?x2913 24003))) 28 (select ?x108 ?x4360))))
(let ((?x4024 (- ?x5029 1)))
(let ((?x4192 (+ (select ?x202 ?x4360) (ite $x2291 0 (ite (> x_beta ?x4024) ?x4024 x_beta)))))
(let ((?x4492 (+ (+ ?x4192 ?x1689) 0)))
(let ((?x2358 (+ ?x2913 (* (div ?x4492 1461) 48))))
(let ((?x2484 (+ (+ ?x2358 (- 1 ?x4360)) 24003)))
(let ((?x2362 (mod ?x4492 1461)))
(let (($x1518 (>= ?x2362 (+ ?x5017 (ite (> 22803 ?x2484) 1 (ite (<= 25203 ?x2484) (- 1) 0))))))
(let ((?x2384 (ite (> 22803 (+ (+ ?x2358 (- 2 ?x4360)) 24003)) 1 (ite (<= 25203 (+ (+ ?x2358 (- 2 ?x4360)) 24003)) (- 1) 0))))
(let ((?x3476 (ite (> 22803 (+ (+ ?x2358 (- 3 ?x4360)) 24003)) 1 (ite (<= 25203 (+ (+ ?x2358 (- 3 ?x4360)) 24003)) (- 1) 0))))
(let ((?x2239 (ite (>= ?x2362 (+ ?x825 ?x3476)) 3 (ite (>= ?x2362 (+ ?x4825 ?x2384)) 2 (ite $x1518 1 0)))))
(let ((?x5066 (ite (> 22803 (+ (+ ?x2358 (- 4 ?x4360)) 24003)) 1 (ite (<= 25203 (+ (+ ?x2358 (- 4 ?x4360)) 24003)) (- 1) 0))))
(let ((?x2368 (ite (> 22803 (+ (+ ?x2358 (- 5 ?x4360)) 24003)) 1 (ite (<= 25203 (+ (+ ?x2358 (- 5 ?x4360)) 24003)) (- 1) 0))))
(let ((?x4312 (ite (>= ?x2362 (+ ?x4116 ?x2368)) 5 (ite (>= ?x2362 (+ ?x4400 ?x5066)) 4 ?x2239))))
(let ((?x3893 (ite (> 22803 (+ (+ ?x2358 (- 6 ?x4360)) 24003)) 1 (ite (<= 25203 (+ (+ ?x2358 (- 6 ?x4360)) 24003)) (- 1) 0))))
(let ((?x4451 (ite (> 22803 (+ (+ ?x2358 (- 7 ?x4360)) 24003)) 1 (ite (<= 25203 (+ (+ ?x2358 (- 7 ?x4360)) 24003)) (- 1) 0))))
(let ((?x4292 (ite (>= ?x2362 (+ ?x5141 ?x4451)) 7 (ite (>= ?x2362 (+ ?x3509 ?x3893)) 6 ?x4312))))
(let ((?x821 (ite (> 22803 (+ (+ ?x2358 (- 8 ?x4360)) 24003)) 1 (ite (<= 25203 (+ (+ ?x2358 (- 8 ?x4360)) 24003)) (- 1) 0))))
(let ((?x1071 (ite (> 22803 (+ (+ ?x2358 (- 9 ?x4360)) 24003)) 1 (ite (<= 25203 (+ (+ ?x2358 (- 9 ?x4360)) 24003)) (- 1) 0))))
(let ((?x3952 (ite (>= ?x2362 (+ ?x4094 ?x1071)) 9 (ite (>= ?x2362 (+ ?x3177 ?x821)) 8 ?x4292))))
(let ((?x862 (ite (> 22803 (+ (+ ?x2358 (- 10 ?x4360)) 24003)) 1 (ite (<= 25203 (+ (+ ?x2358 (- 10 ?x4360)) 24003)) (- 1) 0))))
(let ((?x3635 (ite (> 22803 (+ (+ ?x2358 (- 11 ?x4360)) 24003)) 1 (ite (<= 25203 (+ (+ ?x2358 (- 11 ?x4360)) 24003)) (- 1) 0))))
(let ((?x1888 (ite (>= ?x2362 (+ ?x1488 ?x3635)) 11 (ite (>= ?x2362 (+ ?x2946 ?x862)) 10 ?x3952))))
(let ((?x4224 (ite (> 22803 (+ (+ ?x2358 (- 12 ?x4360)) 24003)) 1 (ite (<= 25203 (+ (+ ?x2358 (- 12 ?x4360)) 24003)) (- 1) 0))))
(let ((?x3205 (ite (> 22803 (+ (+ ?x2358 (- 13 ?x4360)) 24003)) 1 (ite (<= 25203 (+ (+ ?x2358 (- 13 ?x4360)) 24003)) (- 1) 0))))
(let ((?x4484 (ite (>= ?x2362 (+ ?x1881 ?x3205)) 13 (ite (>= ?x2362 (+ ?x2643 ?x4224)) 12 ?x1888))))
(let ((?x5075 (ite (> 22803 (+ (+ ?x2358 (- 14 ?x4360)) 24003)) 1 (ite (<= 25203 (+ (+ ?x2358 (- 14 ?x4360)) 24003)) (- 1) 0))))
(let ((?x1731 (ite (> 22803 (+ (+ ?x2358 (- 15 ?x4360)) 24003)) 1 (ite (<= 25203 (+ (+ ?x2358 (- 15 ?x4360)) 24003)) (- 1) 0))))
(let ((?x2534 (ite (>= ?x2362 (+ ?x863 ?x1731)) 15 (ite (>= ?x2362 (+ ?x3895 ?x5075)) 14 ?x4484))))
(let ((?x3583 (ite (> 22803 (+ (+ ?x2358 (- 16 ?x4360)) 24003)) 1 (ite (<= 25203 (+ (+ ?x2358 (- 16 ?x4360)) 24003)) (- 1) 0))))
(let ((?x5402 (ite (> 22803 (+ (+ ?x2358 (- 17 ?x4360)) 24003)) 1 (ite (<= 25203 (+ (+ ?x2358 (- 17 ?x4360)) 24003)) (- 1) 0))))
(let ((?x3353 (ite (>= ?x2362 (+ ?x1410 ?x5402)) 17 (ite (>= ?x2362 (+ ?x2150 ?x3583)) 16 ?x2534))))
(let ((?x1646 (ite (> 22803 (+ (+ ?x2358 (- 18 ?x4360)) 24003)) 1 (ite (<= 25203 (+ (+ ?x2358 (- 18 ?x4360)) 24003)) (- 1) 0))))
(let ((?x972 (ite (> 22803 (+ (+ ?x2358 (- 19 ?x4360)) 24003)) 1 (ite (<= 25203 (+ (+ ?x2358 (- 19 ?x4360)) 24003)) (- 1) 0))))
(let ((?x1621 (ite (>= ?x2362 (+ ?x2081 ?x972)) 19 (ite (>= ?x2362 (+ ?x5091 ?x1646)) 18 ?x3353))))
(let ((?x1039 (ite (> 22803 (+ (+ ?x2358 (- 20 ?x4360)) 24003)) 1 (ite (<= 25203 (+ (+ ?x2358 (- 20 ?x4360)) 24003)) (- 1) 0))))
(let ((?x1233 (ite (> 22803 (+ (+ ?x2358 (- 21 ?x4360)) 24003)) 1 (ite (<= 25203 (+ (+ ?x2358 (- 21 ?x4360)) 24003)) (- 1) 0))))
(let ((?x3283 (ite (>= ?x2362 (+ ?x1923 ?x1233)) 21 (ite (>= ?x2362 (+ ?x5640 ?x1039)) 20 ?x1621))))
(let ((?x3568 (ite (> 22803 (+ (+ ?x2358 (- 22 ?x4360)) 24003)) 1 (ite (<= 25203 (+ (+ ?x2358 (- 22 ?x4360)) 24003)) (- 1) 0))))
(let ((?x1721 (ite (> 22803 (+ (+ ?x2358 (- 23 ?x4360)) 24003)) 1 (ite (<= 25203 (+ (+ ?x2358 (- 23 ?x4360)) 24003)) (- 1) 0))))
(let ((?x5393 (ite (>= ?x2362 (+ ?x1641 ?x1721)) 23 (ite (>= ?x2362 (+ ?x3985 ?x3568)) 22 ?x3283))))
(let ((?x302 (ite (> 22803 (+ (+ ?x2358 (- 24 ?x4360)) 24003)) 1 (ite (<= 25203 (+ (+ ?x2358 (- 24 ?x4360)) 24003)) (- 1) 0))))
(let ((?x5425 (ite (> 22803 (+ (+ ?x2358 (- 25 ?x4360)) 24003)) 1 (ite (<= 25203 (+ (+ ?x2358 (- 25 ?x4360)) 24003)) (- 1) 0))))
(let ((?x2401 (ite (>= ?x2362 (+ ?x4510 ?x5425)) 25 (ite (>= ?x2362 (+ ?x5618 ?x302)) 24 ?x5393))))
(let ((?x4449 (ite (> 22803 (+ (+ ?x2358 (- 26 ?x4360)) 24003)) 1 (ite (<= 25203 (+ (+ ?x2358 (- 26 ?x4360)) 24003)) (- 1) 0))))
(let ((?x5158 (ite (> 22803 (+ (+ ?x2358 (- 27 ?x4360)) 24003)) 1 (ite (<= 25203 (+ (+ ?x2358 (- 27 ?x4360)) 24003)) (- 1) 0))))
(let ((?x3408 (ite (>= ?x2362 (+ ?x1851 ?x5158)) 27 (ite (>= ?x2362 (+ ?x4042 ?x4449)) 26 ?x2401))))
(let ((?x3520 (ite (> 22803 (+ (+ ?x2358 (- 28 ?x4360)) 24003)) 1 (ite (<= 25203 (+ (+ ?x2358 (- 28 ?x4360)) 24003)) (- 1) 0))))
(let ((?x4392 (ite (> 22803 (+ (+ ?x2358 (- 29 ?x4360)) 24003)) 1 (ite (<= 25203 (+ (+ ?x2358 (- 29 ?x4360)) 24003)) (- 1) 0))))
(let ((?x3537 (ite (>= ?x2362 (+ ?x3401 ?x4392)) 29 (ite (>= ?x2362 (+ ?x3930 ?x3520)) 28 ?x3408))))
(let ((?x4517 (ite (> 22803 (+ (+ ?x2358 (- 30 ?x4360)) 24003)) 1 (ite (<= 25203 (+ (+ ?x2358 (- 30 ?x4360)) 24003)) (- 1) 0))))
(let ((?x3902 (ite (> 22803 (+ (+ ?x2358 (- 31 ?x4360)) 24003)) 1 (ite (<= 25203 (+ (+ ?x2358 (- 31 ?x4360)) 24003)) (- 1) 0))))
(let ((?x1904 (ite (>= ?x2362 (+ ?x2513 ?x3902)) 31 (ite (>= ?x2362 (+ ?x4920 ?x4517)) 30 ?x3537))))
(let ((?x4131 (ite (> 22803 (+ (+ ?x2358 (- 32 ?x4360)) 24003)) 1 (ite (<= 25203 (+ (+ ?x2358 (- 32 ?x4360)) 24003)) (- 1) 0))))
(let ((?x5559 (ite (> 22803 (+ (+ ?x2358 (- 33 ?x4360)) 24003)) 1 (ite (<= 25203 (+ (+ ?x2358 (- 33 ?x4360)) 24003)) (- 1) 0))))
(let ((?x5427 (ite (>= ?x2362 (+ ?x5530 ?x5559)) 33 (ite (>= ?x2362 (+ ?x4848 ?x4131)) 32 ?x1904))))
(let ((?x5418 (ite (> 22803 (+ (+ ?x2358 (- 34 ?x4360)) 24003)) 1 (ite (<= 25203 (+ (+ ?x2358 (- 34 ?x4360)) 24003)) (- 1) 0))))
(let ((?x3204 (ite (> 22803 (+ (+ ?x2358 (- 35 ?x4360)) 24003)) 1 (ite (<= 25203 (+ (+ ?x2358 (- 35 ?x4360)) 24003)) (- 1) 0))))
(let ((?x5159 (ite (>= ?x2362 (+ ?x4415 ?x3204)) 35 (ite (>= ?x2362 (+ ?x1066 ?x5418)) 34 ?x5427))))
(let ((?x4365 (ite (> 22803 (+ (+ ?x2358 (- 36 ?x4360)) 24003)) 1 (ite (<= 25203 (+ (+ ?x2358 (- 36 ?x4360)) 24003)) (- 1) 0))))
(let ((?x4070 (ite (> 22803 (+ (+ ?x2358 (- 37 ?x4360)) 24003)) 1 (ite (<= 25203 (+ (+ ?x2358 (- 37 ?x4360)) 24003)) (- 1) 0))))
(let ((?x5661 (ite (>= ?x2362 (+ ?x3617 ?x4070)) 37 (ite (>= ?x2362 (+ ?x4713 ?x4365)) 36 ?x5159))))
(let ((?x3699 (ite (> 22803 (+ (+ ?x2358 (- 38 ?x4360)) 24003)) 1 (ite (<= 25203 (+ (+ ?x2358 (- 38 ?x4360)) 24003)) (- 1) 0))))
(let ((?x3929 (ite (> 22803 (+ (+ ?x2358 (- 39 ?x4360)) 24003)) 1 (ite (<= 25203 (+ (+ ?x2358 (- 39 ?x4360)) 24003)) (- 1) 0))))
(let ((?x4459 (ite (>= ?x2362 (+ ?x5727 ?x3929)) 39 (ite (>= ?x2362 (+ ?x2046 ?x3699)) 38 ?x5661))))
(let ((?x4380 (ite (> 22803 (+ (+ ?x2358 (- 40 ?x4360)) 24003)) 1 (ite (<= 25203 (+ (+ ?x2358 (- 40 ?x4360)) 24003)) (- 1) 0))))
(let ((?x4868 (ite (> 22803 (+ (+ ?x2358 (- 41 ?x4360)) 24003)) 1 (ite (<= 25203 (+ (+ ?x2358 (- 41 ?x4360)) 24003)) (- 1) 0))))
(let ((?x2460 (ite (>= ?x2362 (+ ?x3175 ?x4868)) 41 (ite (>= ?x2362 (+ ?x5422 ?x4380)) 40 ?x4459))))
(let ((?x5284 (ite (> 22803 (+ (+ ?x2358 (- 42 ?x4360)) 24003)) 1 (ite (<= 25203 (+ (+ ?x2358 (- 42 ?x4360)) 24003)) (- 1) 0))))
(let ((?x874 (ite (> 22803 (+ (+ ?x2358 (- 43 ?x4360)) 24003)) 1 (ite (<= 25203 (+ (+ ?x2358 (- 43 ?x4360)) 24003)) (- 1) 0))))
(let ((?x4673 (ite (>= ?x2362 (+ ?x1456 ?x874)) 43 (ite (>= ?x2362 (+ ?x5124 ?x5284)) 42 ?x2460))))
(let ((?x4796 (ite (> 22803 (+ (+ ?x2358 (- 44 ?x4360)) 24003)) 1 (ite (<= 25203 (+ (+ ?x2358 (- 44 ?x4360)) 24003)) (- 1) 0))))
(let ((?x4648 (ite (> 22803 (+ (+ ?x2358 (- 45 ?x4360)) 24003)) 1 (ite (<= 25203 (+ (+ ?x2358 (- 45 ?x4360)) 24003)) (- 1) 0))))
(let ((?x5421 (ite (>= ?x2362 (+ ?x3507 ?x4648)) 45 (ite (>= ?x2362 (+ ?x2814 ?x4796)) 44 ?x4673))))
(let ((?x5007 (ite (> 22803 (+ (+ ?x2358 (- 46 ?x4360)) 24003)) 1 (ite (<= 25203 (+ (+ ?x2358 (- 46 ?x4360)) 24003)) (- 1) 0))))
(let ((?x3948 (ite (> 22803 (+ (+ ?x2358 (- 47 ?x4360)) 24003)) 1 (ite (<= 25203 (+ (+ ?x2358 (- 47 ?x4360)) 24003)) (- 1) 0))))
(let ((?x1880 (ite (>= ?x2362 (+ ?x5369 ?x3948)) 47 (ite (>= ?x2362 (+ ?x4417 ?x5007)) 46 ?x5421))))
(let ((?x2698 (+ ?x2358 (- ?x1880 ?x4360))))
(let ((?x2507 (+ ?x2698 24003)))
(let ((?x4983 (+ (select ?x202 ?x1880) (ite (> 22803 ?x2507) 1 (ite (<= 25203 ?x2507) (- 1) 0)))))
(let ((?x5231 (- ?x2362 ?x4983)))
(let ((?x4690 (ite (or (= 22802 ?x2507) (= 25202 ?x2507)) 28 (select ?x108 ?x1880))))
(let (($x1377 (= (ite (= 1 (ite (>= ?x5231 ?x4690) 1 0)) (- ?x5231 ?x4690) ?x5231) (ite (= 1 (ite (>= ?x3837 ?x1976) 1 0)) (- ?x3837 ?x1976) ?x3837))))
(let (($x2243 (= (+ ?x2698 (ite (>= ?x5231 ?x4690) 1 0)) (+ ?x3000 (ite (>= ?x3837 ?x1976) 1 0)))))
(not (and $x2243 $x1377))))))))))))))))))))))))))))))))))))))))))))))))))))))))))))))))))))))))))))))))))))))))))))))))))))))))))))))))))))))))))))))))))))))))))))))))))))))))))))))))))))))))))))))))))))))))))))))))))))))))))))))))))))))))))))))))))))))))))))))))))))))))))))))))))))))))))))))))))))))))))))
(check-sat)
